46
75
60	13
59	17
58	16
57	24
56	24
55	21
54	27
53	14
52	21
51	28
50	25
49	22
48	28
47	34
46	25
45	25
44	24
43	23
42	23
41	21
40	13
39	28
38	30
37	24
36	16
35	15
34	23
33	26
32	22
31	23
30	13
29	20
28	23
27	20
26	18
25	15
24	19
23	21
22	21
21	22
20	22
19	26
18	16
17	22
16	26
15	21
